data/lp_files/q3/34_8.lp
\ Model foo
\ LP format - for model browsing. Use MPS format to capture full model detail.
Minimize
  z
Subject To
 allocateEach[1]: x[1,1] + x[2,1] = 1
 allocateEach[2]: x[1,2] + x[2,2] = 1
 allocateEach[3]: x[1,3] + x[2,3] = 1
 allocateEach[4]: x[1,4] + x[2,4] = 1
 allocateEach[5]: x[1,5] + x[2,5] = 1
 allocateEach[6]: x[1,6] + x[2,6] = 1
 allocateEach[7]: x[1,7] + x[2,7] = 1
 allocateEach[8]: x[1,8] + x[2,8] = 1
 allocateEach[9]: x[1,9] + x[2,9] = 1
 allocateEach[10]: x[1,10] + x[2,10] = 1
 allocateEach[11]: x[1,11] + x[2,11] = 1
 allocateEach[12]: x[1,12] + x[2,12] = 1
 allocateEach[13]: x[1,13] + x[2,13] = 1
 allocateEach[14]: x[1,14] + x[2,14] = 1
 allocateAllCash: cashProportion[1] + cashProportion[2] = 1
 findWorstP[1,2]: z + 0.1067079270651319 cashProportion[1]
   - 0.1067079270651319 cashProportion[2] + 0.0995985114244174 x[1,1]
   + 0.0423497085539742 x[1,2] + 0.1283562977684705 x[1,3]
   + 0.0162196049139 x[1,4] + 0.0109242240332929 x[1,5]
   + 0.00825652585666458 x[1,6] + 0.0808979472062531 x[1,7]
   + 0.0809913166424351 x[1,8] + 0.1162849635192274 x[1,9]
   + 0.0649851275826653 x[1,10] + 0.0611703191900868 x[1,11]
   + 0.101252484293927 x[1,12] + 0.00936362059996532 x[1,13]
   + 0.0726414213495885 x[1,14] - 0.0995985114244174 x[2,1]
   - 0.0423497085539742 x[2,2] - 0.1283562977684705 x[2,3]
   - 0.0162196049139 x[2,4] - 0.0109242240332929 x[2,5]
   - 0.00825652585666458 x[2,6] - 0.0808979472062531 x[2,7]
   - 0.0809913166424351 x[2,8] - 0.1162849635192274 x[2,9]
   - 0.0649851275826653 x[2,10] - 0.0611703191900868 x[2,11]
   - 0.101252484293927 x[2,12] - 0.00936362059996532 x[2,13]
   - 0.0726414213495885 x[2,14] >= 0
 findWorstP[2,1]: z - 0.1060276732227111 cashProportion[1]
   + 0.1060276732227111 cashProportion[2] - 0.1136616656947463 x[1,1]
   - 0.0852992631076711 x[1,2] - 0.044014737846578 x[1,3]
   - 0.115331601548004 x[1,4] - 0.090653660605418 x[1,5]
   - 0.0107087949954938 x[1,6] - 0.0485076604993903 x[1,7]
   - 0.0108678365053279 x[1,8] - 0.0231007793033982 x[1,9]
   - 0.0989370725759423 x[1,10] - 0.0472088215024121 x[1,11]
   - 0.1175051688490696 x[1,12] - 0.0365530403435297 x[1,13]
   - 0.0516222234003075 x[1,14] + 0.1136616656947463 x[2,1]
   + 0.0852992631076711 x[2,2] + 0.044014737846578 x[2,3]
   + 0.115331601548004 x[2,4] + 0.090653660605418 x[2,5]
   + 0.0107087949954938 x[2,6] + 0.0485076604993903 x[2,7]
   + 0.0108678365053279 x[2,8] + 0.0231007793033982 x[2,9]
   + 0.0989370725759423 x[2,10] + 0.0472088215024121 x[2,11]
   + 0.1175051688490696 x[2,12] + 0.0365530403435297 x[2,13]
   + 0.0516222234003075 x[2,14] >= 0
Bounds
 z <= 1
 -infinity <= cashProportion[1] <= 1
 -infinity <= cashProportion[2] <= 1
Binaries
 x[1,1] x[1,2] x[1,3] x[1,4] x[1,5] x[1,6] x[1,7] x[1,8] x[1,9] x[1,10]
 x[1,11] x[1,12] x[1,13] x[1,14] x[2,1] x[2,2] x[2,3] x[2,4] x[2,5] x[2,6]
 x[2,7] x[2,8] x[2,9] x[2,10] x[2,11] x[2,12] x[2,13] x[2,14]
End
