data/mps_files/q3/34_8.mps
NAME foo
ROWS
 N  OBJ
 E  allocateEach[1]
 E  allocateEach[2]
 E  allocateEach[3]
 E  allocateEach[4]
 E  allocateEach[5]
 E  allocateEach[6]
 E  allocateEach[7]
 E  allocateEach[8]
 E  allocateEach[9]
 E  allocateEach[10]
 E  allocateEach[11]
 E  allocateEach[12]
 E  allocateEach[13]
 E  allocateEach[14]
 E  allocateAllCash
 G  findWorstP[1,2]
 G  findWorstP[2,1]
COLUMNS
    z         OBJ       1
    z         findWorstP[1,2]  1
    z         findWorstP[2,1]  1
    cashProportion[1]  allocateAllCash  1
    cashProportion[1]  findWorstP[1,2]  1.0670792706513188e-01
    cashProportion[1]  findWorstP[2,1]  -1.0602767322271113e-01
    cashProportion[2]  allocateAllCash  1
    cashProportion[2]  findWorstP[1,2]  -1.0670792706513188e-01
    cashProportion[2]  findWorstP[2,1]  1.0602767322271113e-01
    MARKER    'MARKER'                 'INTORG'
    x[1,1]    allocateEach[1]  1
    x[1,1]    findWorstP[1,2]  9.9598511424417446e-02
    x[1,1]    findWorstP[2,1]  -1.1366166569474632e-01
    x[1,2]    allocateEach[2]  1
    x[1,2]    findWorstP[1,2]  4.2349708553974207e-02
    x[1,2]    findWorstP[2,1]  -8.5299263107671081e-02
    x[1,3]    allocateEach[3]  1
    x[1,3]    findWorstP[1,2]  1.2835629776847049e-01
    x[1,3]    findWorstP[2,1]  -4.4014737846577952e-02
    x[1,4]    allocateEach[4]  1
    x[1,4]    findWorstP[1,2]  1.6219604913900041e-02
    x[1,4]    findWorstP[2,1]  -1.1533160154800401e-01
    x[1,5]    allocateEach[5]  1
    x[1,5]    findWorstP[1,2]  1.0924224033292873e-02
    x[1,5]    findWorstP[2,1]  -9.0653660605418018e-02
    x[1,6]    allocateEach[6]  1
    x[1,6]    findWorstP[1,2]  8.2565258566645768e-03
    x[1,6]    findWorstP[2,1]  -1.0708794995493822e-02
    x[1,7]    allocateEach[7]  1
    x[1,7]    findWorstP[1,2]  0.0808979472062531
    x[1,7]    findWorstP[2,1]  -4.8507660499390336e-02
    x[1,8]    allocateEach[8]  1
    x[1,8]    findWorstP[1,2]  8.0991316642435071e-02
    x[1,8]    findWorstP[2,1]  -1.0867836505327889e-02
    x[1,9]    allocateEach[9]  1
    x[1,9]    findWorstP[1,2]  1.1628496351922744e-01
    x[1,9]    findWorstP[2,1]  -2.3100779303398187e-02
    x[1,10]   allocateEach[10]  1
    x[1,10]   findWorstP[1,2]  6.4985127582665309e-02
    x[1,10]   findWorstP[2,1]  -9.8937072575942323e-02
    x[1,11]   allocateEach[11]  1
    x[1,11]   findWorstP[1,2]  6.1170319190086836e-02
    x[1,11]   findWorstP[2,1]  -4.7208821502412124e-02
    x[1,12]   allocateEach[12]  1
    x[1,12]   findWorstP[1,2]  0.101252484293927
    x[1,12]   findWorstP[2,1]  -1.1750516884906960e-01
    x[1,13]   allocateEach[13]  1
    x[1,13]   findWorstP[1,2]  0.00936362059996532
    x[1,13]   findWorstP[2,1]  -3.6553040343529658e-02
    x[1,14]   allocateEach[14]  1
    x[1,14]   findWorstP[1,2]  7.2641421349588509e-02
    x[1,14]   findWorstP[2,1]  -5.1622223400307476e-02
    x[2,1]    allocateEach[1]  1
    x[2,1]    findWorstP[1,2]  -9.9598511424417446e-02
    x[2,1]    findWorstP[2,1]  1.1366166569474632e-01
    x[2,2]    allocateEach[2]  1
    x[2,2]    findWorstP[1,2]  -4.2349708553974207e-02
    x[2,2]    findWorstP[2,1]  8.5299263107671081e-02
    x[2,3]    allocateEach[3]  1
    x[2,3]    findWorstP[1,2]  -1.2835629776847049e-01
    x[2,3]    findWorstP[2,1]  4.4014737846577952e-02
    x[2,4]    allocateEach[4]  1
    x[2,4]    findWorstP[1,2]  -1.6219604913900041e-02
    x[2,4]    findWorstP[2,1]  1.1533160154800401e-01
    x[2,5]    allocateEach[5]  1
    x[2,5]    findWorstP[1,2]  -1.0924224033292873e-02
    x[2,5]    findWorstP[2,1]  9.0653660605418018e-02
    x[2,6]    allocateEach[6]  1
    x[2,6]    findWorstP[1,2]  -8.2565258566645768e-03
    x[2,6]    findWorstP[2,1]  1.0708794995493822e-02
    x[2,7]    allocateEach[7]  1
    x[2,7]    findWorstP[1,2]  -0.0808979472062531
    x[2,7]    findWorstP[2,1]  4.8507660499390336e-02
    x[2,8]    allocateEach[8]  1
    x[2,8]    findWorstP[1,2]  -8.0991316642435071e-02
    x[2,8]    findWorstP[2,1]  1.0867836505327889e-02
    x[2,9]    allocateEach[9]  1
    x[2,9]    findWorstP[1,2]  -1.1628496351922744e-01
    x[2,9]    findWorstP[2,1]  2.3100779303398187e-02
    x[2,10]   allocateEach[10]  1
    x[2,10]   findWorstP[1,2]  -6.4985127582665309e-02
    x[2,10]   findWorstP[2,1]  9.8937072575942323e-02
    x[2,11]   allocateEach[11]  1
    x[2,11]   findWorstP[1,2]  -6.1170319190086836e-02
    x[2,11]   findWorstP[2,1]  4.7208821502412124e-02
    x[2,12]   allocateEach[12]  1
    x[2,12]   findWorstP[1,2]  -0.101252484293927
    x[2,12]   findWorstP[2,1]  1.1750516884906960e-01
    x[2,13]   allocateEach[13]  1
    x[2,13]   findWorstP[1,2]  -0.00936362059996532
    x[2,13]   findWorstP[2,1]  3.6553040343529658e-02
    x[2,14]   allocateEach[14]  1
    x[2,14]   findWorstP[1,2]  -7.2641421349588509e-02
    x[2,14]   findWorstP[2,1]  5.1622223400307476e-02
    MARKER    'MARKER'                 'INTEND'
RHS
    RHS1      allocateEach[1]  1
    RHS1      allocateEach[2]  1
    RHS1      allocateEach[3]  1
    RHS1      allocateEach[4]  1
    RHS1      allocateEach[5]  1
    RHS1      allocateEach[6]  1
    RHS1      allocateEach[7]  1
    RHS1      allocateEach[8]  1
    RHS1      allocateEach[9]  1
    RHS1      allocateEach[10]  1
    RHS1      allocateEach[11]  1
    RHS1      allocateEach[12]  1
    RHS1      allocateEach[13]  1
    RHS1      allocateEach[14]  1
    RHS1      allocateAllCash  1
BOUNDS
 UP BND1      z         1
 MI BND1      cashProportion[1]
 UP BND1      cashProportion[1]  1
 MI BND1      cashProportion[2]
 UP BND1      cashProportion[2]  1
 BV BND1      x[1,1]  
 BV BND1      x[1,2]  
 BV BND1      x[1,3]  
 BV BND1      x[1,4]  
 BV BND1      x[1,5]  
 BV BND1      x[1,6]  
 BV BND1      x[1,7]  
 BV BND1      x[1,8]  
 BV BND1      x[1,9]  
 BV BND1      x[1,10] 
 BV BND1      x[1,11] 
 BV BND1      x[1,12] 
 BV BND1      x[1,13] 
 BV BND1      x[1,14] 
 BV BND1      x[2,1]  
 BV BND1      x[2,2]  
 BV BND1      x[2,3]  
 BV BND1      x[2,4]  
 BV BND1      x[2,5]  
 BV BND1      x[2,6]  
 BV BND1      x[2,7]  
 BV BND1      x[2,8]  
 BV BND1      x[2,9]  
 BV BND1      x[2,10] 
 BV BND1      x[2,11] 
 BV BND1      x[2,12] 
 BV BND1      x[2,13] 
 BV BND1      x[2,14] 
ENDATA
